
%number of servers
V_ = 3;

% number of Movies
M_ = 5;

% standard cost of sending 1 MB over 1km
CTR = 1;

% storage capacity of server v 
RS = array1d (1..V_, [999, 40, 20]);

% outgoing transmittion capacity of server v
RT_OUT = array1d (1..V_, [33, 99, 33]);

% movie size
HS = array1d (1..M_, [7,7,7,6,6]);

%movie bitrate
HB = array1d (1..M_, [10,10,10,1,1]);

%movie popularity from each server
HP = array2d (1..V_,1..M_, [
1,1,1,1,1,
1,1,1,1,1,
1,1,1,1,1]);


%edge distances
ED = array2d (1..V_, 1..V_, [
0, 20, 20,
20, 0, 20,
20, 20, 0]);


%allocation cost
CA = array2d (1..V_, 1..M_, [
100, 100, 100, 100, 100,
100, 100, 100, 100, 100,
100, 100, 100, 100, 100]);


